NAME : mEgtspf
TYPE : AGTSP
DIMENSION : 50
GTSP_SETS : 20
EDGE_WEIGHT_TYPE : EXPLICIT
EDGE_WEIGHT_FORMAT : FULL_MATRIX
EDGE_WEIGHT_SECTION
0 0 0 0 0 0 0 0 0 0 19 20 19 18 45 46 45 44 42 43 42 41 21 22 21 20 29 30 29 28 34 35 34 33 26 27 26 25 20 21 20 19 29 30 29 28 40 41 40 39
0 0 0 0 0 0 0 0 0 0 15 14 15 16 15 16 17 16 12 13 14 13 13 12 13 14 9 10 11 10 10 11 10 9 12 13 12 11 14 13 14 15 7 8 9 8 10 11 12 11
0 0 0 0 0 0 0 0 0 0 35 34 35 36 25 26 27 26 22 23 24 23 19 18 19 20 29 28 29 30 14 15 16 15 12 11 12 13 18 17 18 19 27 26 27 28 28 27 28 29
0 0 0 0 0 0 0 0 0 0 8 7 6 7 28 29 30 29 25 26 27 26 24 23 22 23 12 13 12 11 29 28 27 28 31 30 29 30 25 24 23 24 16 15 14 15 23 24 25 24
0 0 0 0 0 0 0 0 0 0 22 21 22 23 22 23 24 23 19 20 21 20 6 5 6 7 16 15 16 17 11 12 13 12 7 6 5 6 7 6 7 8 14 13 14 15 17 18 19 18
0 0 0 0 0 0 0 0 0 0 8 7 6 7 24 25 24 23 21 22 21 20 20 21 20 19 10 11 10 9 25 26 25 24 27 28 27 26 21 22 21 20 12 13 12 11 19 20 19 18
0 0 0 0 0 0 0 0 0 0 12 13 14 13 28 29 28 27 25 26 25 24 8 9 8 7 12 13 12 11 17 18 17 16 15 16 15 14 9 10 9 8 12 13 12 11 23 24 23 22
0 0 0 0 0 0 0 0 0 0 28 27 28 29 12 13 14 13 7 8 9 8 26 25 26 27 18 17 18 19 13 12 13 14 21 20 21 22 27 26 27 28 18 17 18 19 17 18 19 18
0 0 0 0 0 0 0 0 0 0 28 29 30 29 38 39 38 37 35 36 35 34 12 13 14 13 22 23 24 23 27 28 27 26 19 20 19 18 11 12 13 12 20 21 22 21 33 34 33 32
0 0 0 0 0 0 0 0 0 0 11 12 11 10 27 28 27 26 28 29 28 27 27 28 27 26 17 18 17 16 32 33 32 31 34 35 34 33 28 29 28 27 19 20 19 18 22 23 22 21
0 0 0 0 0 0 0 0 0 0 0 0 0 0 28 29 28 27 25 26 25 24 20 19 18 19 12 13 12 11 25 24 23 24 27 26 25 26 21 20 19 20 12 13 12 11 23 24 23 22
0 0 0 0 0 0 0 0 0 0 0 0 0 0 29 30 29 28 26 27 26 25 19 20 19 18 13 14 13 12 24 25 24 23 26 27 26 25 20 21 20 19 13 14 13 12 24 25 24 23
0 0 0 0 0 0 0 0 0 0 0 0 0 0 28 29 30 29 25 26 27 26 18 19 18 17 12 13 14 13 23 24 23 22 25 26 25 24 19 20 19 18 12 13 14 13 23 24 25 24
0 0 0 0 0 0 0 0 0 0 0 0 0 0 27 28 29 28 24 25 26 25 19 18 17 18 11 12 13 12 24 23 22 23 26 25 24 25 20 19 18 19 11 12 13 12 22 23 24 23
0 0 0 0 0 0 0 0 0 0 30 29 28 29 0 0 0 0 9 8 7 8 28 27 26 27 20 19 18 19 15 14 13 14 23 22 21 22 29 28 27 28 20 19 18 19 7 6 7 8
0 0 0 0 0 0 0 0 0 0 29 28 27 28 0 0 0 0 8 9 8 7 27 26 25 26 19 18 17 18 14 13 12 13 22 21 20 21 28 27 26 27 19 18 17 18 6 5 6 7
0 0 0 0 0 0 0 0 0 0 28 27 28 29 0 0 0 0 7 8 7 6 26 25 26 27 18 17 18 19 13 12 13 14 21 20 21 22 27 26 27 28 18 17 18 19 7 6 7 8
0 0 0 0 0 0 0 0 0 0 29 28 29 30 0 0 0 0 8 7 6 7 27 26 27 28 19 18 19 20 14 13 14 15 22 21 22 23 28 27 28 29 19 18 19 20 8 7 8 9
0 0 0 0 0 0 0 0 0 0 27 26 25 26 7 6 7 8 0 0 0 0 25 24 23 24 17 16 15 16 12 11 10 11 20 19 18 19 26 25 24 25 17 16 15 16 12 11 12 13
0 0 0 0 0 0 0 0 0 0 26 25 24 25 6 7 8 7 0 0 0 0 24 23 22 23 16 15 14 15 11 10 9 10 19 18 17 18 25 24 23 24 16 15 14 15 11 12 13 12
0 0 0 0 0 0 0 0 0 0 25 24 25 26 7 8 9 8 0 0 0 0 23 22 23 24 15 14 15 16 10 9 10 11 18 17 18 19 24 23 24 25 15 14 15 16 12 13 14 13
0 0 0 0 0 0 0 0 0 0 26 25 26 27 8 7 8 9 0 0 0 0 24 23 24 25 16 15 16 17 11 10 11 12 19 18 19 20 25 24 25 26 16 15 16 17 13 12 13 14
0 0 0 0 0 0 0 0 0 0 18 17 18 19 26 27 26 25 23 24 23 22 0 0 0 0 12 11 12 13 15 16 15 14 11 10 9 10 5 4 3 4 8 9 10 9 21 22 21 20
0 0 0 0 0 0 0 0 0 0 17 18 19 18 27 28 27 26 24 25 24 23 0 0 0 0 11 12 13 12 16 17 16 15 10 11 10 9 4 3 2 3 9 10 11 10 22 23 22 21
0 0 0 0 0 0 0 0 0 0 18 19 20 19 26 27 28 27 23 24 25 24 0 0 0 0 12 13 14 13 15 16 17 16 9 10 9 8 3 2 1 2 10 11 12 11 21 22 23 22
0 0 0 0 0 0 0 0 0 0 19 18 19 20 25 26 27 26 22 23 24 23 0 0 0 0 13 12 13 14 14 15 16 15 10 9 8 9 4 3 2 3 9 10 11 10 20 21 22 21
0 0 0 0 0 0 0 0 0 0 14 13 12 13 18 19 18 17 15 16 15 14 14 13 12 13 0 0 0 0 19 18 17 18 21 20 19 20 15 14 13 14 6 5 4 5 13 14 13 12
0 0 0 0 0 0 0 0 0 0 13 12 11 12 19 20 19 18 16 17 16 15 13 14 13 12 0 0 0 0 18 19 18 17 20 21 20 19 14 15 14 13 5 6 5 4 14 15 14 13
0 0 0 0 0 0 0 0 0 0 12 11 12 13 18 19 20 19 15 16 17 16 12 13 12 11 0 0 0 0 17 18 17 16 19 20 19 18 13 14 13 12 4 5 4 3 13 14 15 14
0 0 0 0 0 0 0 0 0 0 13 12 13 14 17 18 19 18 14 15 16 15 13 12 11 12 0 0 0 0 18 17 16 17 20 19 18 19 14 13 12 13 5 4 3 4 12 13 14 13
0 0 0 0 0 0 0 0 0 0 23 22 23 24 13 14 13 12 10 11 10 9 17 16 15 16 17 16 17 18 0 0 0 0 12 11 10 11 18 17 16 17 15 14 15 16 16 15 16 17
0 0 0 0 0 0 0 0 0 0 22 23 24 23 14 15 14 13 11 12 11 10 16 15 14 15 16 17 18 17 0 0 0 0 11 10 9 10 17 16 15 16 14 15 16 15 15 16 17 16
0 0 0 0 0 0 0 0 0 0 23 24 25 24 13 14 15 14 10 11 12 11 15 14 15 16 17 18 19 18 0 0 0 0 10 9 10 11 16 15 16 17 15 16 17 16 16 17 18 17
0 0 0 0 0 0 0 0 0 0 24 23 24 25 12 13 14 13 9 10 11 10 16 15 16 17 18 17 18 19 0 0 0 0 11 10 11 12 17 16 17 18 16 15 16 17 17 16 17 18
0 0 0 0 0 0 0 0 0 0 25 24 25 26 21 22 21 20 18 19 18 17 9 8 9 10 19 18 19 20 10 11 10 9 0 0 0 0 8 7 8 9 17 16 17 18 18 17 18 19
0 0 0 0 0 0 0 0 0 0 24 25 26 25 22 23 22 21 19 20 19 18 8 9 10 9 18 19 20 19 11 12 11 10 0 0 0 0 7 6 7 8 16 17 18 17 17 18 19 18
0 0 0 0 0 0 0 0 0 0 25 26 27 26 21 22 23 22 18 19 20 19 9 10 11 10 19 20 21 20 10 11 12 11 0 0 0 0 8 7 8 9 17 18 19 18 18 19 20 19
0 0 0 0 0 0 0 0 0 0 26 25 26 27 20 21 22 21 17 18 19 18 10 9 10 11 20 19 20 21 9 10 11 10 0 0 0 0 9 8 9 10 18 17 18 19 19 18 19 20
0 0 0 0 0 0 0 0 0 0 19 18 19 20 27 28 27 26 24 25 24 23 1 2 3 2 13 12 13 14 16 17 16 15 8 9 8 7 0 0 0 0 9 10 11 10 22 23 22 21
0 0 0 0 0 0 0 0 0 0 18 19 20 19 28 29 28 27 25 26 25 24 2 3 4 3 12 13 14 13 17 18 17 16 9 10 9 8 0 0 0 0 10 11 12 11 23 24 23 22
0 0 0 0 0 0 0 0 0 0 19 20 21 20 27 28 29 28 24 25 26 25 3 4 5 4 13 14 15 14 16 17 18 17 8 9 8 7 0 0 0 0 11 12 13 12 22 23 24 23
0 0 0 0 0 0 0 0 0 0 20 19 20 21 26 27 28 27 23 24 25 24 2 3 4 3 14 13 14 15 15 16 17 16 7 8 7 6 0 0 0 0 10 11 12 11 21 22 23 22
0 0 0 0 0 0 0 0 0 0 14 13 12 13 18 19 18 17 15 16 15 14 12 11 10 11 4 3 4 5 17 16 15 16 19 18 17 18 13 12 11 12 0 0 0 0 13 14 13 12
0 0 0 0 0 0 0 0 0 0 13 12 11 12 19 20 19 18 16 17 16 15 11 10 9 10 3 4 5 4 16 17 16 15 18 19 18 17 12 11 10 11 0 0 0 0 14 15 14 13
0 0 0 0 0 0 0 0 0 0 12 11 12 13 18 19 20 19 15 16 17 16 10 9 8 9 4 5 6 5 15 16 15 14 17 18 17 16 11 10 9 10 0 0 0 0 13 14 15 14
0 0 0 0 0 0 0 0 0 0 13 12 13 14 17 18 19 18 14 15 16 15 11 10 9 10 5 4 5 6 16 15 14 15 18 17 16 17 12 11 10 11 0 0 0 0 12 13 14 13
0 0 0 0 0 0 0 0 0 0 25 24 23 24 7 8 7 6 14 13 12 13 23 22 21 22 15 14 13 14 18 17 16 17 20 19 18 19 24 23 22 23 15 14 13 14 0 0 0 0
0 0 0 0 0 0 0 0 0 0 24 23 22 23 8 9 8 7 13 14 13 12 22 21 20 21 14 13 12 13 17 18 17 16 19 20 19 18 23 22 21 22 14 13 12 13 0 0 0 0
0 0 0 0 0 0 0 0 0 0 23 22 23 24 7 8 7 6 12 13 12 11 21 20 21 22 13 12 13 14 16 17 16 15 18 19 18 17 22 21 22 23 13 12 13 14 0 0 0 0
0 0 0 0 0 0 0 0 0 0 24 23 24 25 6 7 6 5 13 12 11 12 22 21 22 23 14 13 14 15 17 16 15 16 19 18 17 18 23 22 23 24 14 13 14 15 0 0 0 0
GTSP_SET_SECTION
1 1 -1
2 2 -1
3 3 -1
4 4 -1
5 5 -1
6 6 -1
7 7 -1
8 8 -1
9 9 -1
10 10 -1
11 11 12 13 14 -1
12 15 16 17 18 -1
13 19 20 21 22 -1
14 23 24 25 26 -1
15 27 28 29 30 -1
16 31 32 33 34 -1
17 35 36 37 38 -1
18 39 40 41 42 -1
19 43 44 45 46 -1
20 47 48 49 50 -1
